Maximize
  3 x_heap_leaching + 5 x_vat_leaching
Subject To
  c1: 10 x_heap_leaching + 20 x_vat_leaching <= 100
  c2: 8 x_heap_leaching + 17 x_vat_leaching <= 90
  c3: x_heap_leaching + x_vat_leaching <= 100
End